
-35.8
-7.4
-7.2
-6.9
-6.9
-6.9
-6.9
-6.6
-6.6
-6.6
-6.6
-6.6
-6.6
-6.6
-6.6
-6.6
-6.6
-6.6
-6.6
-6.6
-6.6
-6.6
-46.15
-12.9
-12.3
-7.3
-7.25
-7.15
-7.1
-7.0
-7.0
-6.9
-6.8
-6.7
-6.65
-6.65
-6.65
-6.6
-6.6
-6.6
-6.55
-6.55
-6.55
-6.55